POSCAR
1
9.4000597 0.0 0.0
0.0 3.8375602 0.0
0.0 0.0 53.1748009
Si 
96 
Cartesian
-2.6889642 7.9019346e-04 0.2943352
-3.5378948 1.9658786e-04 2.4339633
-2.6906736 1.9189572 3.4524408
-0.3406901 1.9188596 3.3367124
-0.3594831 4.4324651e-04 0.0718281
-8.936945 1.9192026 1.1169635
-5.8663302 3.0464392e-04 2.2213891
-6.5953899 1.9191502 1.052353
-3.500041 1.9186244 5.6381417
-2.7221163 3.8373852 6.7268963
-0.3771462 3.8372736 6.672071
-8.985898 3.9372288e-05 4.4608689
-5.8485814 1.9187212 5.5421901
-6.6421728 3.8375485 4.4413781
-3.5186281 3.8372252 8.9205514
-2.7318523 1.9184292 10.0101643
-0.3837928 1.9183874 9.9792834
-8.9897356 1.9184778 7.7689939
-9.0040255 3.8371511 11.0814915
-6.6415196 1.918481 7.7527776
-5.8642584 3.8372336 8.8587046
-6.6573205 3.8371532 11.0631294
-2.7427407 3.8371532 13.3086691
-3.5261927 1.9183714 12.2114926
-0.3960361 3.8371511 13.290309
-9.0162687 1.9183874 14.3924666
-5.873868 1.9183714 12.1603069
-6.6682086 1.9184292 14.3616057
-3.5358022 3.8372369 15.5130949
-2.7585416 1.918481 16.6189919
-3.5514796 1.9187212 18.8296204
-0.4103254 1.9184778 16.6027775
-9.022912 3.8372748 17.6996975
-5.881443 3.8372252 15.4512472
-6.6779452 3.8373852 17.6449032
-5.9000196 1.9186244 18.7336293
-2.7578886 3.8375485 19.9303818
-3.5337305 3.0270593e-04 22.1504211
-0.4141601 3.9372288e-05 19.9109306
-9.0593691 1.9188596 21.035017
-5.862166 1.9608562e-04 21.9378568
-6.7093869 1.9189572 20.9193078
-2.8046708 1.9191502 23.319397
-3.6966412 1.9207004 25.4796009
-0.4631191 1.9192026 23.2548275
-9.0405769 4.4324651e-04 24.2999535
-6.0092225 1.9189746 25.4796009
-6.7110968 7.9019346e-04 24.0774365
-0.4631191 1.9192026 27.7043743
-2.8046708 1.9191502 27.639803
-3.5337305 3.0270593e-04 28.8087807
-9.0593691 1.9188596 29.9240838
-5.862166 1.9608562e-04 29.0213451
-6.7110968 7.9019346e-04 26.8817616
-6.7093869 1.9189572 30.0398903
-9.0405769 4.4147358e-04 26.6592503
-2.7578886 3.8375485 31.0288162
-3.5514796 1.9187212 32.1295815
-0.4141601 3.9372288e-05 31.0482693
-9.022912 3.8372736 33.2594986
-5.9000196 1.9186244 32.2255707
-6.6779452 3.8373852 33.3142929
-2.7585416 1.918481 34.3402062
-3.5358022 3.8372336 35.446106
-2.7427407 3.8371532 37.650528
-0.3960361 3.8371511 37.6688919
-0.4103254 1.9184778 34.3564224
-9.0162687 1.9183874 36.5666352
-5.881443 3.8372252 35.5079499
-6.6682086 1.9184292 36.5975952
-3.5261927 1.9183714 38.7477036
-2.7318523 1.9184292 40.9490014
-0.3837928 1.9183874 40.979866
-9.0040255 3.8371468 39.8777084
-5.873868 1.9183714 38.798893
-6.6573205 3.8371532 39.8960724
-3.5186281 3.837224 42.0386505
-2.7221163 3.8373895 44.2323036
-3.500041 1.9186244 45.3210297
-0.3771462 3.8372748 44.2870979
-8.9897356 1.9184778 43.1901779
-5.8642584 3.8372369 42.1004944
-6.6415196 1.918481 43.2063942
-5.8485814 1.9187212 45.4170189
-2.6906736 1.9189572 47.5067101
-3.5378948 1.9608562e-04 48.5252571
-0.3406901 1.9188596 47.6224175
-6.6421728 3.8375483 46.5177841
-8.985898 3.6459401e-05 46.498333
-5.8663302 3.0270593e-04 48.7378197
-2.6889642 7.9019346e-04 50.6648331
-3.3908377 1.9189746 52.0670013
-0.3594831 4.4324651e-04 50.887352
-8.936945 1.9192026 49.8422242
-6.5953899 1.9191502 49.9067994
-5.7034192 1.9207004 52.0670013
