clear
units           metal
boundary        p p p
atom_style      atomic
read_data       datafile
pair_style      meam
pair_coeff      * *  /Users/masud/MD/potentials/library_Cu.meam Cu /Users/masud/MD/potentials/Cu.meam  Cu
group todel id 2
delete_atoms group todel
neighbor        2.0 bin
neigh_modify    delay 10
dump            1 all custom 1 dump id type x y z
log             log
thermo_style    custom step atoms pe ke etotal press vol lx ly lz
thermo_modify   line one format float %.16g
min_style       cg
min_modify      line quadratic
minimize        1.0e-30 1.0e-20 100000 1000000
